100
95 51
50 98
48 71
81 28
24 83
16 83
35 53
68 18
0 29
20 11
8 77
66 100
48 60
74 49
10 62
75 79
85 4
52 19
12 19
86 14
84 14
26 9
2 83
4 69
77 11
9 52
59 26
50 88
1 37
34 56
67 94
25 40
69 47
84 55
15 65
1 3
38 0
86 17
26 78
92 76
34 46
31 85
91 68
32 42
39 50
9 41
7 74
3 79
18 18
76 67
31 19
75 51
30 37
73 4
62 25
12 10
59 33
32 50
94 22
68 88
0 41
84 28
53 67
68 46
92 74
37 73
65 70
86 72
97 58
12 32
81 50
85 47
41 69
52 66
27 14
21 26
29 66
34 19
81 12
42 53
41 68
5 94
3 9
43 37
20 96
88 14
35 22
52 88
39 34
46 91
37 5
29 32
94 62
85 67
50 71
45 23
100 63
39 79
37 37
77 8
